(set-logic QF_BV)

(declare-const __ESBMC_ptr_obj_start_0 (_ BitVec 64))

(declare-const __ESBMC_ptr_obj_end_0 (_ BitVec 64))

(declare-const __ESBMC_ptr_obj_start_1 (_ BitVec 64))

(declare-const __ESBMC_ptr_obj_end_1 (_ BitVec 64))

(declare-const |smt_conv::__ESBMC_ptr_addr_range_0..start0| (_ BitVec 64))

(declare-const |smt_conv::__ESBMC_ptr_addr_range_0..end0| (_ BitVec 64))

(declare-const |smt_conv::__ESBMC_ptr_addr_range_1..start0| (_ BitVec 64))

(declare-const |smt_conv::__ESBMC_ptr_addr_range_1..end0| (_ BitVec 64))

(declare-const |smt_conv::smt_conv::collate_array_vals::3..start0| (_ BitVec 64))

(declare-const |smt_conv::smt_conv::collate_array_vals::3..end0| (_ BitVec 64))

(declare-const |smt_conv::smt_conv::collate_array_vals::4..start0| (_ BitVec 64))

(declare-const |smt_conv::smt_conv::collate_array_vals::4..end0| (_ BitVec 64))

(declare-const |smt_conv::smt_conv::collate_array_vals::7..start0| (_ BitVec 64))

(declare-const |smt_conv::smt_conv::collate_array_vals::7..end0| (_ BitVec 64))

(declare-const |c:minepump_spec3_product08.cil.c@13230@F@test@tmp?1!0&0#1| (_ BitVec 32))

(declare-const |nondet$symex::nondet112| (_ BitVec 32))

(declare-const |goto_symex::guard?0!0&0#1| (_ BitVec 1))

(declare-const |c:@waterLevel&0#3| (_ BitVec 32))

(declare-const |c:minepump_spec3_product08.cil.c@13242@F@test@tmp___0?1!0&0#1| (_ BitVec 32))

(declare-const |nondet$symex::nondet113| (_ BitVec 32))

(declare-const |goto_symex::guard?0!0&0#2| (_ BitVec 1))

(declare-const |c:@methaneLevelCritical&0#3| (_ BitVec 32))

(declare-const |c:minepump_spec3_product08.cil.c@12436@F@isMethaneLevelCritical@retValue_acc?1!0&0#1| (_ BitVec 32))

(declare-const |c:minepump_spec3_product08.cil.c@1745@F@__utac_acc__Specification3_spec__1@tmp?1!0&0#1| (_ BitVec 32))

(declare-const |goto_symex::guard?0!0&0#6| (_ BitVec 1))

(declare-const |c:minepump_spec3_product08.cil.c@12827@F@getWaterLevel@retValue_acc?1!0&0#1| (_ BitVec 32))

(declare-const |c:minepump_spec3_product08.cil.c@1757@F@__utac_acc__Specification3_spec__1@tmp___0?1!0&0#1| (_ BitVec 32))

(declare-const |goto_symex::guard?0!0&0#7| (_ BitVec 1))

(declare-const |c:minepump_spec3_product08.cil.c@13230@F@test@tmp?1!0&0#2| (_ BitVec 32))

(declare-const |nondet$symex::nondet116| (_ BitVec 32))

(declare-const |goto_symex::guard?0!0&0#8| (_ BitVec 1))

(declare-const |goto_symex::guard?0!0&0#9| (_ BitVec 1))

(declare-const |c:@waterLevel&0#4| (_ BitVec 32))

(declare-const |c:@waterLevel&0#5| (_ BitVec 32))

(declare-const |c:@waterLevel&0#6| (_ BitVec 32))

(declare-const |c:minepump_spec3_product08.cil.c@13242@F@test@tmp___0?1!0&0#2| (_ BitVec 32))

(declare-const |nondet$symex::nondet117| (_ BitVec 32))

(declare-const |goto_symex::guard?0!0&0#10| (_ BitVec 1))

(declare-const |goto_symex::guard?0!0&0#11| (_ BitVec 1))

(declare-const |c:@methaneLevelCritical&0#7| (_ BitVec 32))

(declare-const |c:@methaneLevelCritical&0#8| (_ BitVec 32))

(declare-const |c:minepump_spec3_product08.cil.c@12436@F@isMethaneLevelCritical@retValue_acc?2!0&0#1| (_ BitVec 32))

(declare-const |c:minepump_spec3_product08.cil.c@1745@F@__utac_acc__Specification3_spec__1@tmp?2!0&0#1| (_ BitVec 32))

(declare-const |goto_symex::guard?0!0&0#15| (_ BitVec 1))

(declare-const |c:minepump_spec3_product08.cil.c@12827@F@getWaterLevel@retValue_acc?2!0&0#1| (_ BitVec 32))

(declare-const |c:minepump_spec3_product08.cil.c@1757@F@__utac_acc__Specification3_spec__1@tmp___0?2!0&0#1| (_ BitVec 32))

(declare-const |goto_symex::guard?0!0&0#16| (_ BitVec 1))

(declare-const |c:minepump_spec3_product08.cil.c@13230@F@test@tmp?1!0&0#3| (_ BitVec 32))

(declare-const |nondet$symex::nondet120| (_ BitVec 32))

(declare-const |goto_symex::guard?0!0&0#17| (_ BitVec 1))

(declare-const |goto_symex::guard?0!0&0#18| (_ BitVec 1))

(declare-const |c:@waterLevel&0#7| (_ BitVec 32))

(declare-const |c:@waterLevel&0#8| (_ BitVec 32))

(declare-const |c:@waterLevel&0#9| (_ BitVec 32))

(declare-const |c:minepump_spec3_product08.cil.c@13242@F@test@tmp___0?1!0&0#3| (_ BitVec 32))

(declare-const |nondet$symex::nondet121| (_ BitVec 32))

(declare-const |goto_symex::guard?0!0&0#19| (_ BitVec 1))

(declare-const |goto_symex::guard?0!0&0#20| (_ BitVec 1))

(declare-const |c:@methaneLevelCritical&0#12| (_ BitVec 32))

(declare-const |c:@methaneLevelCritical&0#13| (_ BitVec 32))

(declare-const |c:minepump_spec3_product08.cil.c@12436@F@isMethaneLevelCritical@retValue_acc?3!0&0#1| (_ BitVec 32))

(declare-const |c:minepump_spec3_product08.cil.c@1745@F@__utac_acc__Specification3_spec__1@tmp?3!0&0#1| (_ BitVec 32))

(declare-const |goto_symex::guard?0!0&0#24| (_ BitVec 1))

(declare-const |c:minepump_spec3_product08.cil.c@12827@F@getWaterLevel@retValue_acc?3!0&0#1| (_ BitVec 32))

(declare-const |c:minepump_spec3_product08.cil.c@1757@F@__utac_acc__Specification3_spec__1@tmp___0?3!0&0#1| (_ BitVec 32))

(declare-const |goto_symex::guard?0!0&0#25| (_ BitVec 1))

(declare-const |c:minepump_spec3_product08.cil.c@13230@F@test@tmp?1!0&0#4| (_ BitVec 32))

(declare-const |nondet$symex::nondet124| (_ BitVec 32))

(declare-const |goto_symex::guard?0!0&0#26| (_ BitVec 1))

(declare-const |goto_symex::guard?0!0&0#27| (_ BitVec 1))

(declare-const |c:@waterLevel&0#10| (_ BitVec 32))

(declare-const |c:@waterLevel&0#11| (_ BitVec 32))

(declare-const |c:@waterLevel&0#12| (_ BitVec 32))

(declare-const |c:minepump_spec3_product08.cil.c@13242@F@test@tmp___0?1!0&0#4| (_ BitVec 32))

(declare-const |nondet$symex::nondet125| (_ BitVec 32))

(declare-const |goto_symex::guard?0!0&0#28| (_ BitVec 1))

(declare-const |goto_symex::guard?0!0&0#29| (_ BitVec 1))

(declare-const |c:@methaneLevelCritical&0#17| (_ BitVec 32))

(declare-const |c:@methaneLevelCritical&0#18| (_ BitVec 32))

(declare-const |c:minepump_spec3_product08.cil.c@12436@F@isMethaneLevelCritical@retValue_acc?4!0&0#1| (_ BitVec 32))

(declare-const |c:minepump_spec3_product08.cil.c@1745@F@__utac_acc__Specification3_spec__1@tmp?4!0&0#1| (_ BitVec 32))

(declare-const |goto_symex::guard?0!0&0#33| (_ BitVec 1))

(declare-const |c:minepump_spec3_product08.cil.c@12827@F@getWaterLevel@retValue_acc?4!0&0#1| (_ BitVec 32))

(declare-const |c:minepump_spec3_product08.cil.c@1757@F@__utac_acc__Specification3_spec__1@tmp___0?4!0&0#1| (_ BitVec 32))

(declare-const |goto_symex::guard?0!0&0#34| (_ BitVec 1))

(declare-const |c:minepump_spec3_product08.cil.c@13230@F@test@tmp?1!0&0#5| (_ BitVec 32))

(declare-const |nondet$symex::nondet128| (_ BitVec 32))

(declare-const |goto_symex::guard?0!0&0#35| (_ BitVec 1))

(declare-const |goto_symex::guard?0!0&0#36| (_ BitVec 1))

(declare-const |c:@waterLevel&0#13| (_ BitVec 32))

(declare-const |c:@waterLevel&0#14| (_ BitVec 32))

(declare-const |c:@waterLevel&0#15| (_ BitVec 32))

(declare-const |c:minepump_spec3_product08.cil.c@13242@F@test@tmp___0?1!0&0#5| (_ BitVec 32))

(declare-const |nondet$symex::nondet129| (_ BitVec 32))

(declare-const |goto_symex::guard?0!0&0#37| (_ BitVec 1))

(declare-const |goto_symex::guard?0!0&0#38| (_ BitVec 1))

(declare-const |c:@methaneLevelCritical&0#22| (_ BitVec 32))

(declare-const |c:@methaneLevelCritical&0#23| (_ BitVec 32))

(declare-const |c:minepump_spec3_product08.cil.c@12436@F@isMethaneLevelCritical@retValue_acc?5!0&0#1| (_ BitVec 32))

(declare-const |c:minepump_spec3_product08.cil.c@1745@F@__utac_acc__Specification3_spec__1@tmp?5!0&0#1| (_ BitVec 32))

(declare-const |goto_symex::guard?0!0&0#42| (_ BitVec 1))

(declare-const |c:minepump_spec3_product08.cil.c@12827@F@getWaterLevel@retValue_acc?5!0&0#1| (_ BitVec 32))

(declare-const |c:minepump_spec3_product08.cil.c@1757@F@__utac_acc__Specification3_spec__1@tmp___0?5!0&0#1| (_ BitVec 32))

(declare-const |goto_symex::guard?0!0&0#43| (_ BitVec 1))

(declare-const |c:minepump_spec3_product08.cil.c@13230@F@test@tmp?1!0&0#6| (_ BitVec 32))

(declare-const |nondet$symex::nondet132| (_ BitVec 32))

(declare-const |goto_symex::guard?0!0&0#44| (_ BitVec 1))

(declare-const |goto_symex::guard?0!0&0#45| (_ BitVec 1))

(declare-const |c:@waterLevel&0#16| (_ BitVec 32))

(declare-const |c:@waterLevel&0#17| (_ BitVec 32))

(declare-const |c:@waterLevel&0#18| (_ BitVec 32))

(declare-const |c:minepump_spec3_product08.cil.c@13242@F@test@tmp___0?1!0&0#6| (_ BitVec 32))

(declare-const |nondet$symex::nondet133| (_ BitVec 32))

(declare-const |goto_symex::guard?0!0&0#46| (_ BitVec 1))

(declare-const |goto_symex::guard?0!0&0#47| (_ BitVec 1))

(declare-const |c:@methaneLevelCritical&0#27| (_ BitVec 32))

(declare-const |c:@methaneLevelCritical&0#28| (_ BitVec 32))

(declare-const |c:minepump_spec3_product08.cil.c@12436@F@isMethaneLevelCritical@retValue_acc?6!0&0#1| (_ BitVec 32))

(declare-const |c:minepump_spec3_product08.cil.c@1745@F@__utac_acc__Specification3_spec__1@tmp?6!0&0#1| (_ BitVec 32))

(declare-const |goto_symex::guard?0!0&0#51| (_ BitVec 1))

(declare-const |c:minepump_spec3_product08.cil.c@12827@F@getWaterLevel@retValue_acc?6!0&0#1| (_ BitVec 32))

(declare-const |c:minepump_spec3_product08.cil.c@1757@F@__utac_acc__Specification3_spec__1@tmp___0?6!0&0#1| (_ BitVec 32))

(declare-const |goto_symex::guard?0!0&0#52| (_ BitVec 1))

(declare-const |c:minepump_spec3_product08.cil.c@13230@F@test@tmp?1!0&0#7| (_ BitVec 32))

(declare-const |nondet$symex::nondet136| (_ BitVec 32))

(declare-const |goto_symex::guard?0!0&0#53| (_ BitVec 1))

(declare-const |goto_symex::guard?0!0&0#54| (_ BitVec 1))

(declare-const |c:@waterLevel&0#19| (_ BitVec 32))

(declare-const |c:@waterLevel&0#20| (_ BitVec 32))

(declare-const |c:@waterLevel&0#21| (_ BitVec 32))

(declare-const |c:minepump_spec3_product08.cil.c@13242@F@test@tmp___0?1!0&0#7| (_ BitVec 32))

(declare-const |nondet$symex::nondet137| (_ BitVec 32))

(declare-const |goto_symex::guard?0!0&0#55| (_ BitVec 1))

(declare-const |goto_symex::guard?0!0&0#56| (_ BitVec 1))

(declare-const |c:@methaneLevelCritical&0#32| (_ BitVec 32))

(declare-const |c:@methaneLevelCritical&0#33| (_ BitVec 32))

(declare-const |c:minepump_spec3_product08.cil.c@12436@F@isMethaneLevelCritical@retValue_acc?7!0&0#1| (_ BitVec 32))

(declare-const |c:minepump_spec3_product08.cil.c@1745@F@__utac_acc__Specification3_spec__1@tmp?7!0&0#1| (_ BitVec 32))

(declare-const |goto_symex::guard?0!0&0#60| (_ BitVec 1))

(declare-const |c:minepump_spec3_product08.cil.c@12827@F@getWaterLevel@retValue_acc?7!0&0#1| (_ BitVec 32))

(declare-const |c:minepump_spec3_product08.cil.c@1757@F@__utac_acc__Specification3_spec__1@tmp___0?7!0&0#1| (_ BitVec 32))

(declare-const |goto_symex::guard?0!0&0#61| (_ BitVec 1))

(declare-const |c:minepump_spec3_product08.cil.c@13230@F@test@tmp?1!0&0#8| (_ BitVec 32))

(declare-const |nondet$symex::nondet140| (_ BitVec 32))

(declare-const |goto_symex::guard?0!0&0#62| (_ BitVec 1))

(declare-const |goto_symex::guard?0!0&0#63| (_ BitVec 1))

(declare-const |c:@waterLevel&0#22| (_ BitVec 32))

(declare-const |c:@waterLevel&0#23| (_ BitVec 32))

(declare-const |c:@waterLevel&0#24| (_ BitVec 32))

(declare-const |c:minepump_spec3_product08.cil.c@13242@F@test@tmp___0?1!0&0#8| (_ BitVec 32))

(declare-const |nondet$symex::nondet141| (_ BitVec 32))

(declare-const |goto_symex::guard?0!0&0#64| (_ BitVec 1))

(declare-const |goto_symex::guard?0!0&0#65| (_ BitVec 1))

(declare-const |c:@methaneLevelCritical&0#37| (_ BitVec 32))

(declare-const |c:@methaneLevelCritical&0#38| (_ BitVec 32))

(declare-const |c:minepump_spec3_product08.cil.c@12436@F@isMethaneLevelCritical@retValue_acc?8!0&0#1| (_ BitVec 32))

(declare-const |c:minepump_spec3_product08.cil.c@1745@F@__utac_acc__Specification3_spec__1@tmp?8!0&0#1| (_ BitVec 32))

(declare-const |goto_symex::guard?0!0&0#69| (_ BitVec 1))

(declare-const |c:minepump_spec3_product08.cil.c@12827@F@getWaterLevel@retValue_acc?8!0&0#1| (_ BitVec 32))

(declare-const |c:minepump_spec3_product08.cil.c@1757@F@__utac_acc__Specification3_spec__1@tmp___0?8!0&0#1| (_ BitVec 32))

(declare-const |goto_symex::guard?0!0&0#70| (_ BitVec 1))

(declare-const |execution_statet::guard_exec?0!0| (_ BitVec 1))

(assert 

 (= __ESBMC_ptr_obj_start_0 #b0000000000000000000000000000000000000000000000000000000000000000))

(assert 

 (= #b0000000000000000000000000000000000000000000000000000000000000000 __ESBMC_ptr_obj_end_0))

(assert 

 (= __ESBMC_ptr_obj_start_1 #b0000000000000000000000000000000000000000000000000000000000000001))

(assert 

 (= #b1111111111111111111111111111111111111111111111111111111111111111 __ESBMC_ptr_obj_end_1))

(assert 

 (= __ESBMC_ptr_obj_end_0 |smt_conv::__ESBMC_ptr_addr_range_0..end0|))

(assert 

 (= __ESBMC_ptr_obj_start_0 |smt_conv::__ESBMC_ptr_addr_range_0..start0|))

(assert 

 (= __ESBMC_ptr_obj_end_1 |smt_conv::__ESBMC_ptr_addr_range_1..end0|))

(assert 

 (= __ESBMC_ptr_obj_start_1 |smt_conv::__ESBMC_ptr_addr_range_1..start0|))

(assert 

 (= |smt_conv::smt_conv::collate_array_vals::3..end0| |smt_conv::smt_conv::collate_array_vals::4..end0|))

(assert 

 (= |smt_conv::smt_conv::collate_array_vals::3..start0| |smt_conv::smt_conv::collate_array_vals::4..start0|))

(assert 

 (= __ESBMC_ptr_obj_end_0 |smt_conv::smt_conv::collate_array_vals::7..end0|))

(assert 

 (= __ESBMC_ptr_obj_start_0 |smt_conv::smt_conv::collate_array_vals::7..start0|))

(assert 

 (= |c:minepump_spec3_product08.cil.c@13230@F@test@tmp?1!0&0#1| |nondet$symex::nondet112|))

(assert 

 (= |goto_symex::guard?0!0&0#1| 

  (bvnot 

   (ite 

    (= #b00000000000000000000000000000000 |c:minepump_spec3_product08.cil.c@13230@F@test@tmp?1!0&0#1|) #b1 #b0))))

(assert 

 (= |c:@waterLevel&0#3| 

  (ite 

   (= #b1 |goto_symex::guard?0!0&0#1|) #b00000000000000000000000000000010 #b00000000000000000000000000000001)))

(assert 

 (= |c:minepump_spec3_product08.cil.c@13242@F@test@tmp___0?1!0&0#1| |nondet$symex::nondet113|))

(assert 

 (= |goto_symex::guard?0!0&0#2| 

  (bvnot 

   (ite 

    (= #b00000000000000000000000000000000 |c:minepump_spec3_product08.cil.c@13242@F@test@tmp___0?1!0&0#1|) #b1 #b0))))

(assert 

 (= |c:@methaneLevelCritical&0#3| 

  (ite 

   (= #b1 |goto_symex::guard?0!0&0#2|) #b00000000000000000000000000000001 #b00000000000000000000000000000000)))

(assert 

 (= |c:@methaneLevelCritical&0#3| |c:minepump_spec3_product08.cil.c@12436@F@isMethaneLevelCritical@retValue_acc?1!0&0#1|))

(assert 

 (= |c:minepump_spec3_product08.cil.c@12436@F@isMethaneLevelCritical@retValue_acc?1!0&0#1| |c:minepump_spec3_product08.cil.c@1745@F@__utac_acc__Specification3_spec__1@tmp?1!0&0#1|))

(assert 

 (= |goto_symex::guard?0!0&0#6| 

  (bvnot 

   (ite 

    (= #b00000000000000000000000000000000 |c:minepump_spec3_product08.cil.c@1745@F@__utac_acc__Specification3_spec__1@tmp?1!0&0#1|) #b1 #b0))))

(assert 

 (= |c:@waterLevel&0#3| |c:minepump_spec3_product08.cil.c@12827@F@getWaterLevel@retValue_acc?1!0&0#1|))

(assert 

 (= |c:minepump_spec3_product08.cil.c@12827@F@getWaterLevel@retValue_acc?1!0&0#1| |c:minepump_spec3_product08.cil.c@1757@F@__utac_acc__Specification3_spec__1@tmp___0?1!0&0#1|))

(assert 

 (= |goto_symex::guard?0!0&0#7| 

  (ite 

   (= #b00000000000000000000000000000010 |c:minepump_spec3_product08.cil.c@1757@F@__utac_acc__Specification3_spec__1@tmp___0?1!0&0#1|) #b1 #b0)))

(assert 

 (= |c:minepump_spec3_product08.cil.c@13230@F@test@tmp?1!0&0#2| |nondet$symex::nondet116|))

(assert 

 (= |goto_symex::guard?0!0&0#8| 

  (bvnot 

   (ite 

    (= #b00000000000000000000000000000000 |c:minepump_spec3_product08.cil.c@13230@F@test@tmp?1!0&0#2|) #b1 #b0))))

(assert 

 (= |goto_symex::guard?0!0&0#9| 

  (ite 

   (bvslt |c:@waterLevel&0#3| #b00000000000000000000000000000010) #b1 #b0)))

(assert 

 (= |c:@waterLevel&0#4| 

  (bvadd |c:@waterLevel&0#3| #b00000000000000000000000000000001)))

(assert 

 (= |c:@waterLevel&0#5| 

  (ite 

   (= #b1 |goto_symex::guard?0!0&0#9|) |c:@waterLevel&0#4| |c:@waterLevel&0#3|)))

(assert 

 (= |c:@waterLevel&0#6| 

  (ite 

   (= #b1 |goto_symex::guard?0!0&0#8|) |c:@waterLevel&0#5| |c:@waterLevel&0#3|)))

(assert 

 (= |c:minepump_spec3_product08.cil.c@13242@F@test@tmp___0?1!0&0#2| |nondet$symex::nondet117|))

(assert 

 (= |goto_symex::guard?0!0&0#10| 

  (bvnot 

   (ite 

    (= #b00000000000000000000000000000000 |c:minepump_spec3_product08.cil.c@13242@F@test@tmp___0?1!0&0#2|) #b1 #b0))))

(assert 

 (= |goto_symex::guard?0!0&0#11| 

  (bvnot 

   (ite 

    (= #b00000000000000000000000000000000 |c:@methaneLevelCritical&0#3|) #b1 #b0))))

(assert 

 (= |c:@methaneLevelCritical&0#7| 

  (ite 

   (= #b1 |goto_symex::guard?0!0&0#11|) #b00000000000000000000000000000000 #b00000000000000000000000000000001)))

(assert 

 (= |c:@methaneLevelCritical&0#8| 

  (ite 

   (= #b1 |goto_symex::guard?0!0&0#10|) |c:@methaneLevelCritical&0#7| |c:@methaneLevelCritical&0#3|)))

(assert 

 (= |c:@methaneLevelCritical&0#8| |c:minepump_spec3_product08.cil.c@12436@F@isMethaneLevelCritical@retValue_acc?2!0&0#1|))

(assert 

 (= |c:minepump_spec3_product08.cil.c@12436@F@isMethaneLevelCritical@retValue_acc?2!0&0#1| |c:minepump_spec3_product08.cil.c@1745@F@__utac_acc__Specification3_spec__1@tmp?2!0&0#1|))

(assert 

 (= |goto_symex::guard?0!0&0#15| 

  (bvnot 

   (ite 

    (= #b00000000000000000000000000000000 |c:minepump_spec3_product08.cil.c@1745@F@__utac_acc__Specification3_spec__1@tmp?2!0&0#1|) #b1 #b0))))

(assert 

 (= |c:@waterLevel&0#6| |c:minepump_spec3_product08.cil.c@12827@F@getWaterLevel@retValue_acc?2!0&0#1|))

(assert 

 (= |c:minepump_spec3_product08.cil.c@12827@F@getWaterLevel@retValue_acc?2!0&0#1| |c:minepump_spec3_product08.cil.c@1757@F@__utac_acc__Specification3_spec__1@tmp___0?2!0&0#1|))

(assert 

 (= |goto_symex::guard?0!0&0#16| 

  (ite 

   (= #b00000000000000000000000000000010 |c:minepump_spec3_product08.cil.c@1757@F@__utac_acc__Specification3_spec__1@tmp___0?2!0&0#1|) #b1 #b0)))

(assert 

 (= |c:minepump_spec3_product08.cil.c@13230@F@test@tmp?1!0&0#3| |nondet$symex::nondet120|))

(assert 

 (= |goto_symex::guard?0!0&0#17| 

  (bvnot 

   (ite 

    (= #b00000000000000000000000000000000 |c:minepump_spec3_product08.cil.c@13230@F@test@tmp?1!0&0#3|) #b1 #b0))))

(assert 

 (= |goto_symex::guard?0!0&0#18| 

  (ite 

   (bvslt |c:@waterLevel&0#6| #b00000000000000000000000000000010) #b1 #b0)))

(assert 

 (= |c:@waterLevel&0#7| 

  (bvadd #b00000000000000000000000000000001 |c:@waterLevel&0#6|)))

(assert 

 (= |c:@waterLevel&0#8| 

  (ite 

   (= #b1 |goto_symex::guard?0!0&0#18|) |c:@waterLevel&0#7| |c:@waterLevel&0#6|)))

(assert 

 (= |c:@waterLevel&0#9| 

  (ite 

   (= #b1 |goto_symex::guard?0!0&0#17|) |c:@waterLevel&0#8| |c:@waterLevel&0#6|)))

(assert 

 (= |c:minepump_spec3_product08.cil.c@13242@F@test@tmp___0?1!0&0#3| |nondet$symex::nondet121|))

(assert 

 (= |goto_symex::guard?0!0&0#19| 

  (bvnot 

   (ite 

    (= #b00000000000000000000000000000000 |c:minepump_spec3_product08.cil.c@13242@F@test@tmp___0?1!0&0#3|) #b1 #b0))))

(assert 

 (= |goto_symex::guard?0!0&0#20| 

  (bvnot 

   (ite 

    (= #b00000000000000000000000000000000 |c:@methaneLevelCritical&0#8|) #b1 #b0))))

(assert 

 (= |c:@methaneLevelCritical&0#12| 

  (ite 

   (= #b1 |goto_symex::guard?0!0&0#20|) #b00000000000000000000000000000000 #b00000000000000000000000000000001)))

(assert 

 (= |c:@methaneLevelCritical&0#13| 

  (ite 

   (= #b1 |goto_symex::guard?0!0&0#19|) |c:@methaneLevelCritical&0#12| |c:@methaneLevelCritical&0#8|)))

(assert 

 (= |c:@methaneLevelCritical&0#13| |c:minepump_spec3_product08.cil.c@12436@F@isMethaneLevelCritical@retValue_acc?3!0&0#1|))

(assert 

 (= |c:minepump_spec3_product08.cil.c@12436@F@isMethaneLevelCritical@retValue_acc?3!0&0#1| |c:minepump_spec3_product08.cil.c@1745@F@__utac_acc__Specification3_spec__1@tmp?3!0&0#1|))

(assert 

 (= |goto_symex::guard?0!0&0#24| 

  (bvnot 

   (ite 

    (= #b00000000000000000000000000000000 |c:minepump_spec3_product08.cil.c@1745@F@__utac_acc__Specification3_spec__1@tmp?3!0&0#1|) #b1 #b0))))

(assert 

 (= |c:@waterLevel&0#9| |c:minepump_spec3_product08.cil.c@12827@F@getWaterLevel@retValue_acc?3!0&0#1|))

(assert 

 (= |c:minepump_spec3_product08.cil.c@12827@F@getWaterLevel@retValue_acc?3!0&0#1| |c:minepump_spec3_product08.cil.c@1757@F@__utac_acc__Specification3_spec__1@tmp___0?3!0&0#1|))

(assert 

 (= |goto_symex::guard?0!0&0#25| 

  (ite 

   (= #b00000000000000000000000000000010 |c:minepump_spec3_product08.cil.c@1757@F@__utac_acc__Specification3_spec__1@tmp___0?3!0&0#1|) #b1 #b0)))

(assert 

 (= |c:minepump_spec3_product08.cil.c@13230@F@test@tmp?1!0&0#4| |nondet$symex::nondet124|))

(assert 

 (= |goto_symex::guard?0!0&0#26| 

  (bvnot 

   (ite 

    (= #b00000000000000000000000000000000 |c:minepump_spec3_product08.cil.c@13230@F@test@tmp?1!0&0#4|) #b1 #b0))))

(assert 

 (= |goto_symex::guard?0!0&0#27| 

  (ite 

   (bvslt |c:@waterLevel&0#9| #b00000000000000000000000000000010) #b1 #b0)))

(assert 

 (= |c:@waterLevel&0#10| 

  (bvadd #b00000000000000000000000000000001 |c:@waterLevel&0#9|)))

(assert 

 (= |c:@waterLevel&0#11| 

  (ite 

   (= #b1 |goto_symex::guard?0!0&0#27|) |c:@waterLevel&0#10| |c:@waterLevel&0#9|)))

(assert 

 (= |c:@waterLevel&0#12| 

  (ite 

   (= #b1 |goto_symex::guard?0!0&0#26|) |c:@waterLevel&0#11| |c:@waterLevel&0#9|)))

(assert 

 (= |c:minepump_spec3_product08.cil.c@13242@F@test@tmp___0?1!0&0#4| |nondet$symex::nondet125|))

(assert 

 (= |goto_symex::guard?0!0&0#28| 

  (bvnot 

   (ite 

    (= #b00000000000000000000000000000000 |c:minepump_spec3_product08.cil.c@13242@F@test@tmp___0?1!0&0#4|) #b1 #b0))))

(assert 

 (= |goto_symex::guard?0!0&0#29| 

  (bvnot 

   (ite 

    (= #b00000000000000000000000000000000 |c:@methaneLevelCritical&0#13|) #b1 #b0))))

(assert 

 (= |c:@methaneLevelCritical&0#17| 

  (ite 

   (= #b1 |goto_symex::guard?0!0&0#29|) #b00000000000000000000000000000000 #b00000000000000000000000000000001)))

(assert 

 (= |c:@methaneLevelCritical&0#18| 

  (ite 

   (= #b1 |goto_symex::guard?0!0&0#28|) |c:@methaneLevelCritical&0#17| |c:@methaneLevelCritical&0#13|)))

(assert 

 (= |c:@methaneLevelCritical&0#18| |c:minepump_spec3_product08.cil.c@12436@F@isMethaneLevelCritical@retValue_acc?4!0&0#1|))

(assert 

 (= |c:minepump_spec3_product08.cil.c@12436@F@isMethaneLevelCritical@retValue_acc?4!0&0#1| |c:minepump_spec3_product08.cil.c@1745@F@__utac_acc__Specification3_spec__1@tmp?4!0&0#1|))

(assert 

 (= |goto_symex::guard?0!0&0#33| 

  (bvnot 

   (ite 

    (= #b00000000000000000000000000000000 |c:minepump_spec3_product08.cil.c@1745@F@__utac_acc__Specification3_spec__1@tmp?4!0&0#1|) #b1 #b0))))

(assert 

 (= |c:@waterLevel&0#12| |c:minepump_spec3_product08.cil.c@12827@F@getWaterLevel@retValue_acc?4!0&0#1|))

(assert 

 (= |c:minepump_spec3_product08.cil.c@12827@F@getWaterLevel@retValue_acc?4!0&0#1| |c:minepump_spec3_product08.cil.c@1757@F@__utac_acc__Specification3_spec__1@tmp___0?4!0&0#1|))

(assert 

 (= |goto_symex::guard?0!0&0#34| 

  (ite 

   (= #b00000000000000000000000000000010 |c:minepump_spec3_product08.cil.c@1757@F@__utac_acc__Specification3_spec__1@tmp___0?4!0&0#1|) #b1 #b0)))

(assert 

 (= |c:minepump_spec3_product08.cil.c@13230@F@test@tmp?1!0&0#5| |nondet$symex::nondet128|))

(assert 

 (= |goto_symex::guard?0!0&0#35| 

  (bvnot 

   (ite 

    (= #b00000000000000000000000000000000 |c:minepump_spec3_product08.cil.c@13230@F@test@tmp?1!0&0#5|) #b1 #b0))))

(assert 

 (= |goto_symex::guard?0!0&0#36| 

  (ite 

   (bvslt |c:@waterLevel&0#12| #b00000000000000000000000000000010) #b1 #b0)))

(assert 

 (= |c:@waterLevel&0#13| 

  (bvadd #b00000000000000000000000000000001 |c:@waterLevel&0#12|)))

(assert 

 (= |c:@waterLevel&0#14| 

  (ite 

   (= #b1 |goto_symex::guard?0!0&0#36|) |c:@waterLevel&0#13| |c:@waterLevel&0#12|)))

(assert 

 (= |c:@waterLevel&0#15| 

  (ite 

   (= #b1 |goto_symex::guard?0!0&0#35|) |c:@waterLevel&0#14| |c:@waterLevel&0#12|)))

(assert 

 (= |c:minepump_spec3_product08.cil.c@13242@F@test@tmp___0?1!0&0#5| |nondet$symex::nondet129|))

(assert 

 (= |goto_symex::guard?0!0&0#37| 

  (bvnot 

   (ite 

    (= #b00000000000000000000000000000000 |c:minepump_spec3_product08.cil.c@13242@F@test@tmp___0?1!0&0#5|) #b1 #b0))))

(assert 

 (= |goto_symex::guard?0!0&0#38| 

  (bvnot 

   (ite 

    (= #b00000000000000000000000000000000 |c:@methaneLevelCritical&0#18|) #b1 #b0))))

(assert 

 (= |c:@methaneLevelCritical&0#22| 

  (ite 

   (= #b1 |goto_symex::guard?0!0&0#38|) #b00000000000000000000000000000000 #b00000000000000000000000000000001)))

(assert 

 (= |c:@methaneLevelCritical&0#23| 

  (ite 

   (= #b1 |goto_symex::guard?0!0&0#37|) |c:@methaneLevelCritical&0#22| |c:@methaneLevelCritical&0#18|)))

(assert 

 (= |c:@methaneLevelCritical&0#23| |c:minepump_spec3_product08.cil.c@12436@F@isMethaneLevelCritical@retValue_acc?5!0&0#1|))

(assert 

 (= |c:minepump_spec3_product08.cil.c@12436@F@isMethaneLevelCritical@retValue_acc?5!0&0#1| |c:minepump_spec3_product08.cil.c@1745@F@__utac_acc__Specification3_spec__1@tmp?5!0&0#1|))

(assert 

 (= |goto_symex::guard?0!0&0#42| 

  (bvnot 

   (ite 

    (= #b00000000000000000000000000000000 |c:minepump_spec3_product08.cil.c@1745@F@__utac_acc__Specification3_spec__1@tmp?5!0&0#1|) #b1 #b0))))

(assert 

 (= |c:@waterLevel&0#15| |c:minepump_spec3_product08.cil.c@12827@F@getWaterLevel@retValue_acc?5!0&0#1|))

(assert 

 (= |c:minepump_spec3_product08.cil.c@12827@F@getWaterLevel@retValue_acc?5!0&0#1| |c:minepump_spec3_product08.cil.c@1757@F@__utac_acc__Specification3_spec__1@tmp___0?5!0&0#1|))

(assert 

 (= |goto_symex::guard?0!0&0#43| 

  (ite 

   (= #b00000000000000000000000000000010 |c:minepump_spec3_product08.cil.c@1757@F@__utac_acc__Specification3_spec__1@tmp___0?5!0&0#1|) #b1 #b0)))

(assert 

 (= |c:minepump_spec3_product08.cil.c@13230@F@test@tmp?1!0&0#6| |nondet$symex::nondet132|))

(assert 

 (= |goto_symex::guard?0!0&0#44| 

  (bvnot 

   (ite 

    (= #b00000000000000000000000000000000 |c:minepump_spec3_product08.cil.c@13230@F@test@tmp?1!0&0#6|) #b1 #b0))))

(assert 

 (= |goto_symex::guard?0!0&0#45| 

  (ite 

   (bvslt |c:@waterLevel&0#15| #b00000000000000000000000000000010) #b1 #b0)))

(assert 

 (= |c:@waterLevel&0#16| 

  (bvadd #b00000000000000000000000000000001 |c:@waterLevel&0#15|)))

(assert 

 (= |c:@waterLevel&0#17| 

  (ite 

   (= #b1 |goto_symex::guard?0!0&0#45|) |c:@waterLevel&0#16| |c:@waterLevel&0#15|)))

(assert 

 (= |c:@waterLevel&0#18| 

  (ite 

   (= #b1 |goto_symex::guard?0!0&0#44|) |c:@waterLevel&0#17| |c:@waterLevel&0#15|)))

(assert 

 (= |c:minepump_spec3_product08.cil.c@13242@F@test@tmp___0?1!0&0#6| |nondet$symex::nondet133|))

(assert 

 (= |goto_symex::guard?0!0&0#46| 

  (bvnot 

   (ite 

    (= #b00000000000000000000000000000000 |c:minepump_spec3_product08.cil.c@13242@F@test@tmp___0?1!0&0#6|) #b1 #b0))))

(assert 

 (= |goto_symex::guard?0!0&0#47| 

  (bvnot 

   (ite 

    (= #b00000000000000000000000000000000 |c:@methaneLevelCritical&0#23|) #b1 #b0))))

(assert 

 (= |c:@methaneLevelCritical&0#27| 

  (ite 

   (= #b1 |goto_symex::guard?0!0&0#47|) #b00000000000000000000000000000000 #b00000000000000000000000000000001)))

(assert 

 (= |c:@methaneLevelCritical&0#28| 

  (ite 

   (= #b1 |goto_symex::guard?0!0&0#46|) |c:@methaneLevelCritical&0#27| |c:@methaneLevelCritical&0#23|)))

(assert 

 (= |c:@methaneLevelCritical&0#28| |c:minepump_spec3_product08.cil.c@12436@F@isMethaneLevelCritical@retValue_acc?6!0&0#1|))

(assert 

 (= |c:minepump_spec3_product08.cil.c@12436@F@isMethaneLevelCritical@retValue_acc?6!0&0#1| |c:minepump_spec3_product08.cil.c@1745@F@__utac_acc__Specification3_spec__1@tmp?6!0&0#1|))

(assert 

 (= |goto_symex::guard?0!0&0#51| 

  (bvnot 

   (ite 

    (= #b00000000000000000000000000000000 |c:minepump_spec3_product08.cil.c@1745@F@__utac_acc__Specification3_spec__1@tmp?6!0&0#1|) #b1 #b0))))

(assert 

 (= |c:@waterLevel&0#18| |c:minepump_spec3_product08.cil.c@12827@F@getWaterLevel@retValue_acc?6!0&0#1|))

(assert 

 (= |c:minepump_spec3_product08.cil.c@12827@F@getWaterLevel@retValue_acc?6!0&0#1| |c:minepump_spec3_product08.cil.c@1757@F@__utac_acc__Specification3_spec__1@tmp___0?6!0&0#1|))

(assert 

 (= |goto_symex::guard?0!0&0#52| 

  (ite 

   (= #b00000000000000000000000000000010 |c:minepump_spec3_product08.cil.c@1757@F@__utac_acc__Specification3_spec__1@tmp___0?6!0&0#1|) #b1 #b0)))

(assert 

 (= |c:minepump_spec3_product08.cil.c@13230@F@test@tmp?1!0&0#7| |nondet$symex::nondet136|))

(assert 

 (= |goto_symex::guard?0!0&0#53| 

  (bvnot 

   (ite 

    (= #b00000000000000000000000000000000 |c:minepump_spec3_product08.cil.c@13230@F@test@tmp?1!0&0#7|) #b1 #b0))))

(assert 

 (= |goto_symex::guard?0!0&0#54| 

  (ite 

   (bvslt |c:@waterLevel&0#18| #b00000000000000000000000000000010) #b1 #b0)))

(assert 

 (= |c:@waterLevel&0#19| 

  (bvadd #b00000000000000000000000000000001 |c:@waterLevel&0#18|)))

(assert 

 (= |c:@waterLevel&0#20| 

  (ite 

   (= #b1 |goto_symex::guard?0!0&0#54|) |c:@waterLevel&0#19| |c:@waterLevel&0#18|)))

(assert 

 (= |c:@waterLevel&0#21| 

  (ite 

   (= #b1 |goto_symex::guard?0!0&0#53|) |c:@waterLevel&0#20| |c:@waterLevel&0#18|)))

(assert 

 (= |c:minepump_spec3_product08.cil.c@13242@F@test@tmp___0?1!0&0#7| |nondet$symex::nondet137|))

(assert 

 (= |goto_symex::guard?0!0&0#55| 

  (bvnot 

   (ite 

    (= #b00000000000000000000000000000000 |c:minepump_spec3_product08.cil.c@13242@F@test@tmp___0?1!0&0#7|) #b1 #b0))))

(assert 

 (= |goto_symex::guard?0!0&0#56| 

  (bvnot 

   (ite 

    (= #b00000000000000000000000000000000 |c:@methaneLevelCritical&0#28|) #b1 #b0))))

(assert 

 (= |c:@methaneLevelCritical&0#32| 

  (ite 

   (= #b1 |goto_symex::guard?0!0&0#56|) #b00000000000000000000000000000000 #b00000000000000000000000000000001)))

(assert 

 (= |c:@methaneLevelCritical&0#33| 

  (ite 

   (= #b1 |goto_symex::guard?0!0&0#55|) |c:@methaneLevelCritical&0#32| |c:@methaneLevelCritical&0#28|)))

(assert 

 (= |c:@methaneLevelCritical&0#33| |c:minepump_spec3_product08.cil.c@12436@F@isMethaneLevelCritical@retValue_acc?7!0&0#1|))

(assert 

 (= |c:minepump_spec3_product08.cil.c@12436@F@isMethaneLevelCritical@retValue_acc?7!0&0#1| |c:minepump_spec3_product08.cil.c@1745@F@__utac_acc__Specification3_spec__1@tmp?7!0&0#1|))

(assert 

 (= |goto_symex::guard?0!0&0#60| 

  (bvnot 

   (ite 

    (= #b00000000000000000000000000000000 |c:minepump_spec3_product08.cil.c@1745@F@__utac_acc__Specification3_spec__1@tmp?7!0&0#1|) #b1 #b0))))

(assert 

 (= |c:@waterLevel&0#21| |c:minepump_spec3_product08.cil.c@12827@F@getWaterLevel@retValue_acc?7!0&0#1|))

(assert 

 (= |c:minepump_spec3_product08.cil.c@12827@F@getWaterLevel@retValue_acc?7!0&0#1| |c:minepump_spec3_product08.cil.c@1757@F@__utac_acc__Specification3_spec__1@tmp___0?7!0&0#1|))

(assert 

 (= |goto_symex::guard?0!0&0#61| 

  (ite 

   (= #b00000000000000000000000000000010 |c:minepump_spec3_product08.cil.c@1757@F@__utac_acc__Specification3_spec__1@tmp___0?7!0&0#1|) #b1 #b0)))

(assert 

 (= |c:minepump_spec3_product08.cil.c@13230@F@test@tmp?1!0&0#8| |nondet$symex::nondet140|))

(assert 

 (= |goto_symex::guard?0!0&0#62| 

  (bvnot 

   (ite 

    (= #b00000000000000000000000000000000 |c:minepump_spec3_product08.cil.c@13230@F@test@tmp?1!0&0#8|) #b1 #b0))))

(assert 

 (= |goto_symex::guard?0!0&0#63| 

  (ite 

   (bvslt |c:@waterLevel&0#21| #b00000000000000000000000000000010) #b1 #b0)))

(assert 

 (= |c:@waterLevel&0#22| 

  (bvadd #b00000000000000000000000000000001 |c:@waterLevel&0#21|)))

(assert 

 (= |c:@waterLevel&0#23| 

  (ite 

   (= #b1 |goto_symex::guard?0!0&0#63|) |c:@waterLevel&0#22| |c:@waterLevel&0#21|)))

(assert 

 (= |c:@waterLevel&0#24| 

  (ite 

   (= #b1 |goto_symex::guard?0!0&0#62|) |c:@waterLevel&0#23| |c:@waterLevel&0#21|)))

(assert 

 (= |c:minepump_spec3_product08.cil.c@13242@F@test@tmp___0?1!0&0#8| |nondet$symex::nondet141|))

(assert 

 (= |goto_symex::guard?0!0&0#64| 

  (bvnot 

   (ite 

    (= #b00000000000000000000000000000000 |c:minepump_spec3_product08.cil.c@13242@F@test@tmp___0?1!0&0#8|) #b1 #b0))))

(assert 

 (= |goto_symex::guard?0!0&0#65| 

  (bvnot 

   (ite 

    (= #b00000000000000000000000000000000 |c:@methaneLevelCritical&0#33|) #b1 #b0))))

(assert 

 (= |c:@methaneLevelCritical&0#37| 

  (ite 

   (= #b1 |goto_symex::guard?0!0&0#65|) #b00000000000000000000000000000000 #b00000000000000000000000000000001)))

(assert 

 (= |c:@methaneLevelCritical&0#38| 

  (ite 

   (= #b1 |goto_symex::guard?0!0&0#64|) |c:@methaneLevelCritical&0#37| |c:@methaneLevelCritical&0#33|)))

(assert 

 (= |c:@methaneLevelCritical&0#38| |c:minepump_spec3_product08.cil.c@12436@F@isMethaneLevelCritical@retValue_acc?8!0&0#1|))

(assert 

 (= |c:minepump_spec3_product08.cil.c@12436@F@isMethaneLevelCritical@retValue_acc?8!0&0#1| |c:minepump_spec3_product08.cil.c@1745@F@__utac_acc__Specification3_spec__1@tmp?8!0&0#1|))

(assert 

 (= |goto_symex::guard?0!0&0#69| 

  (bvnot 

   (ite 

    (= #b00000000000000000000000000000000 |c:minepump_spec3_product08.cil.c@1745@F@__utac_acc__Specification3_spec__1@tmp?8!0&0#1|) #b1 #b0))))

(assert 

 (= |c:@waterLevel&0#24| |c:minepump_spec3_product08.cil.c@12827@F@getWaterLevel@retValue_acc?8!0&0#1|))

(assert 

 (= |c:minepump_spec3_product08.cil.c@12827@F@getWaterLevel@retValue_acc?8!0&0#1| |c:minepump_spec3_product08.cil.c@1757@F@__utac_acc__Specification3_spec__1@tmp___0?8!0&0#1|))

(assert 

 (= |goto_symex::guard?0!0&0#70| 

  (ite 

   (= #b00000000000000000000000000000010 |c:minepump_spec3_product08.cil.c@1757@F@__utac_acc__Specification3_spec__1@tmp___0?8!0&0#1|) #b1 #b0)))

(assert (= |execution_statet::guard_exec?0!0| #b1))

(assert (= 

 (bvnot 

  (bvand 

   (bvnot |goto_symex::guard?0!0&0#69|) |goto_symex::guard?0!0&0#70|)) #b1))

(assert (= 

 (bvnot 

  (bvand 

   (bvnot |goto_symex::guard?0!0&0#60|) |goto_symex::guard?0!0&0#61|)) #b1))

(assert (= 

 (bvnot 

  (bvand 

   (bvnot |goto_symex::guard?0!0&0#51|) |goto_symex::guard?0!0&0#52|)) #b1))

(assert (= 

 (bvnot 

  (bvand 

   (bvnot |goto_symex::guard?0!0&0#42|) |goto_symex::guard?0!0&0#43|)) #b1))

(assert (= 

 (bvnot 

  (bvand 

   (bvnot |goto_symex::guard?0!0&0#33|) |goto_symex::guard?0!0&0#34|)) #b1))

(assert (= 

 (bvnot 

  (bvand 

   (bvnot |goto_symex::guard?0!0&0#24|) |goto_symex::guard?0!0&0#25|)) #b1))

(assert (= 

 (bvnot 

  (bvand 

   (bvnot |goto_symex::guard?0!0&0#15|) |goto_symex::guard?0!0&0#16|)) #b1))

(assert (= 

 (bvnot 

  (bvand 

   (bvnot |goto_symex::guard?0!0&0#6|) |goto_symex::guard?0!0&0#7|)) #b1))

(check-sat)

(exit)
